set Stages := InitialStage FutureStage;

set Nodes := RootNode                             
            Node1
            Node2
            Node3
;

param NodeStage :=  
    RootNode                    InitialStage
            Node1      FutureStage
            Node2     FutureStage
            Node3       FutureStage;

set Children[RootNode] :=
            Node1
            Node2
            Node3;


param ConditionalProbability :=  RootNode       	1.0
                                 Node1       weight_scenario1
                                 Node2       weight_scenario2
                                 Node3       weight_scenario3;

set Scenarios :=
            Scenario1
            Scenario2
            Scenario3;

param ScenarioLeafNode := 
            Scenario1   Node1
            Scenario2   Node2
            Scenario3   Node3
            ;

set StageVariables[InitialStage] := P_PV_Output_ini[*]
                                    P_Grid_Output_ini[*]
                                    P_ESS_Output_ini[*]
                                    P_EV_ChargeHome_ini[*]
                                    P_EV_ChargeAway_ini[*];

set StageVariables[FutureStage] :=  P_PV_Output_rec[*]
                                    P_Grid_Output_rec[*]
                                    P_ESS_Output_rec[*]
                                    P_EV_ChargeHome_rec[*]
                                    P_EV_ChargeAway_rec[*];

param StageCost := InitialStage InitialStageCost
                   FutureStage  FutureStageCost;
                   
param ScenarioBasedData := False;
                   
                     
